WARNING: for repeatability, setting FPU to use double precision
============================[ Problem Statistics ]=============================
|                                                                             |
|  Number of variables:           100                                         |
|  Number of clauses:             449                                         |
|  Parse time:                   0.00 s                                       |
|  Eliminated clauses:           0.00 Mb                                      |
|  Simplification time:          0.00 s                                       |
|                                                                             |
============================[ Search Statistics ]==============================
| Conflicts |          ORIGINAL         |          LEARNT          | Progress |
|           |    Vars  Clauses Literals |    Limit  Clauses Lit/Cl |          |
===============================================================================
|       100 |      98      447     1354 |      163      100      7 |  0.010 % |
|       250 |      97      436     1320 |      180       55      5 |  1.020 % |
===============================================================================
restarts              : 3
conflicts             : 343            (89207 /sec)
decisions             : 414            (0.00 % random) (107672 /sec)
propagations          : 7468           (1942263 /sec)
conflict literals     : 1970           (21.51 % deleted)
Memory used           : 13.00 MB
CPU time              : 0.003845 s

SATISFIABLE
